;(set-option :produce-unsat-cores true )
(set-logic ALL_SUPPORTED )
(declare-sort A$ 0 )
(declare-sort A_set$ 0 )
(declare-sort A_bool_fun$ 0 )
(declare-sort A_llist_set$ 0 )
(declare-sort A_llist_bool_fun$ 0 )
(declare-sort A_llist_llist_set$ 0 )
(declare-sort A_llist_llist_bool_fun$ 0 )
(declare-sort A_llist_llist_llist_set$ 0 )
(declare-sort A_llist_llist_llist_bool_fun$ 0 )
(declare-sort A_llist_llist_llist_llist_set$ 0 )
(declare-sort A_llist_llist_llist_llist_bool_fun$ 0 )
(declare-sort A_llist$ 0)
(declare-sort A_llist_llist$ 0)
(declare-sort A_llist_llist_llist$ 0)
(declare-sort A_llist_llist_llist_llist$ 0)
(declare-fun lNil$ ()A_llist$)
(declare-fun lhd$ (A_llist$)A$)
(declare-fun ltl$ (A_llist$)A_llist$)
(declare-fun lCons$ (A$ A_llist$ )A_llist$)
(declare-fun lNil$a ()A_llist_llist$)
(declare-fun lhd$a (A_llist_llist$)A_llist$)
(declare-fun ltl$a (A_llist_llist$)A_llist_llist$)
(declare-fun lCons$a (A_llist$ A_llist_llist$ )A_llist_llist$)
(declare-fun lNil$b ()A_llist_llist_llist$)
(declare-fun lhd$b (A_llist_llist_llist$)A_llist_llist$)
(declare-fun ltl$b (A_llist_llist_llist$)A_llist_llist_llist$)
(declare-fun lCons$b (A_llist_llist$ A_llist_llist_llist$ )A_llist_llist_llist$)
(declare-fun lNil$c ()A_llist_llist_llist_llist$)
(declare-fun lhd$c (A_llist_llist_llist_llist$)A_llist_llist_llist$)
(declare-fun ltl$c (A_llist_llist_llist_llist$)A_llist_llist_llist_llist$)
(declare-fun lCons$c (A_llist_llist_llist$ A_llist_llist_llist_llist$ )A_llist_llist_llist_llist$)
(declare-fun a$ ()A_set$ )
(declare-fun b$ ()A_set$ )
(declare-fun l$ ()A_llist$ )
(declare-fun x$ ()A_llist$ )
(declare-fun uu$ (A_llist_llist_llist_set$ )A_llist_llist_llist_bool_fun$ )
(declare-fun top$ ()A_llist_llist_set$ )
(declare-fun uua$ (A_llist_llist_set$ )A_llist_llist_bool_fun$ )
(declare-fun uub$ (A_llist_set$ )A_llist_bool_fun$ )
(declare-fun uuc$ (A_set$ )A_bool_fun$ )
(declare-fun top$a ()A_llist_set$ )
(declare-fun top$b ()A_set$ )
(declare-fun minus$ (A_llist_llist_llist_set$ A_llist_llist_llist_set$ )A_llist_llist_llist_set$ )
(declare-fun member$ (A_llist_llist_llist$ A_llist_llist_llist_set$ )Bool )
(declare-fun minus$a (A_llist_llist_set$ A_llist_llist_set$ )A_llist_llist_set$ )
(declare-fun minus$b (A_llist_set$ A_llist_set$ )A_llist_set$ )
(declare-fun alllsts$ (A_set$ )A_llist_set$ )
(declare-fun finlsts$ (A_set$ )A_llist_set$ )
(declare-fun fun_app$ (A_llist_llist_llist_bool_fun$ A_llist_llist_llist$ )Bool )
(declare-fun inflsts$ (A_llist_llist_set$ )A_llist_llist_llist_set$ )
(declare-fun less_eq$ (A_llist_llist_set$ A_llist_llist_set$ )Bool )
(declare-fun member$a (A_llist_llist$ A_llist_llist_set$ )Bool )
(declare-fun member$b (A_llist$ A_llist_set$ )Bool )
(declare-fun member$c (A$ A_set$ )Bool )
(declare-fun member$d (A_llist_llist_llist_llist$ A_llist_llist_llist_llist_set$ )Bool )
(declare-fun alllsts$a (A_llist_llist_set$ )A_llist_llist_llist_set$ )
(declare-fun alllsts$b (A_llist_set$ )A_llist_llist_set$ )
(declare-fun alllsts$c (A_llist_llist_llist_set$ )A_llist_llist_llist_llist_set$ )
(declare-fun finlsts$a (A_llist_llist_set$ )A_llist_llist_llist_set$ )
(declare-fun finlsts$b (A_llist_set$ )A_llist_llist_set$ )
(declare-fun finlsts$c (A_llist_llist_llist_set$ )A_llist_llist_llist_llist_set$ )
(declare-fun finlstsp$ (A_llist_llist_llist_bool_fun$ )A_llist_llist_llist_llist_bool_fun$ )
(declare-fun fun_app$a (A_llist_llist_bool_fun$ A_llist_llist$ )Bool )
(declare-fun fun_app$b (A_llist_bool_fun$ A_llist$ )Bool )
(declare-fun fun_app$c (A_bool_fun$ A$ )Bool )
(declare-fun fun_app$d (A_llist_llist_llist_llist_bool_fun$ A_llist_llist_llist_llist$ )Bool )
(declare-fun inflsts$a (A_llist_set$ )A_llist_llist_set$ )
(declare-fun inflsts$b (A_set$ )A_llist_set$ )
(declare-fun less_eq$a (A_llist_llist_llist_set$ A_llist_llist_llist_set$ )Bool )
(declare-fun less_eq$b (A_llist_set$ A_llist_set$ )Bool )
(declare-fun less_eq$c (A_set$ A_set$ )Bool )
(declare-fun finlstsp$a (A_llist_llist_bool_fun$ )A_llist_llist_llist_bool_fun$ )
(declare-fun finlstsp$b (A_llist_bool_fun$ )A_llist_llist_bool_fun$ )
(declare-fun finlstsp$c (A_bool_fun$ )A_llist_bool_fun$ )
(assert (! (forall ((?v0 A_llist_llist_llist_set$ )(?v1 A_llist_llist_llist$ ))(! (= (fun_app$ (uu$ ?v0 )?v1 )(member$ ?v1 ?v0 )):pattern ((fun_app$ (uu$ ?v0 )?v1 )))):named a0 ))
(assert (! (forall ((?v0 A_llist_llist_set$ )(?v1 A_llist_llist$ ))(! (= (fun_app$a (uua$ ?v0 )?v1 )(member$a ?v1 ?v0 )):pattern ((fun_app$a (uua$ ?v0 )?v1 )))):named a1 ))
(assert (! (forall ((?v0 A_llist_set$ )(?v1 A_llist$ ))(! (= (fun_app$b (uub$ ?v0 )?v1 )(member$b ?v1 ?v0 )):pattern ((fun_app$b (uub$ ?v0 )?v1 )))):named a2 ))
(assert (! (forall ((?v0 A_set$ )(?v1 A$ ))(! (= (fun_app$c (uuc$ ?v0 )?v1 )(member$c ?v1 ?v0 )):pattern ((fun_app$c (uuc$ ?v0 )?v1 )))):named a3 ))
(assert (! (not (member$b l$ (finlsts$ b$ ))):named a4 ))
(assert (! (= l$ lNil$ ):named a5 ))
(assert (! (member$b x$ (finlsts$ a$ )):named a6 ))
(assert (! (member$b l$ (alllsts$ b$ )):named a7 ))
(assert (! (forall ((?v0 A_llist_llist_llist$ )(?v1 A_llist_llist_set$ ))(=> (member$ ?v0 (finlsts$a ?v1 ))(member$ ?v0 (alllsts$a ?v1 )))):named a8 ))
(assert (! (forall ((?v0 A_llist_llist$ )(?v1 A_llist_set$ ))(=> (member$a ?v0 (finlsts$b ?v1 ))(member$a ?v0 (alllsts$b ?v1 )))):named a9 ))
(assert (! (forall ((?v0 A_llist$ )(?v1 A_set$ ))(=> (member$b ?v0 (finlsts$ ?v1 ))(member$b ?v0 (alllsts$ ?v1 )))):named a10 ))
(assert (! (forall ((?v0 A_llist_llist_set$ ))(member$ lNil$b (finlsts$a ?v0 ))):named a11 ))
(assert (! (forall ((?v0 A_llist_set$ ))(member$a lNil$a (finlsts$b ?v0 ))):named a12 ))
(assert (! (forall ((?v0 A_set$ ))(member$b lNil$ (finlsts$ ?v0 ))):named a13 ))
(assert (! (forall ((?v0 A_llist_llist_llist_llist$ )(?v1 A_llist_llist_llist_set$ )(?v2 A_llist_llist_llist$ ))(=> (and (member$d ?v0 (finlsts$c ?v1 ))(member$ ?v2 ?v1 ))(member$d (lCons$c ?v2 ?v0 )(finlsts$c ?v1 )))):named a14 ))
(assert (! (forall ((?v0 A_llist_llist_llist$ )(?v1 A_llist_llist_set$ )(?v2 A_llist_llist$ ))(=> (and (member$ ?v0 (finlsts$a ?v1 ))(member$a ?v2 ?v1 ))(member$ (lCons$b ?v2 ?v0 )(finlsts$a ?v1 )))):named a15 ))
(assert (! (forall ((?v0 A_llist_llist$ )(?v1 A_llist_set$ )(?v2 A_llist$ ))(=> (and (member$a ?v0 (finlsts$b ?v1 ))(member$b ?v2 ?v1 ))(member$a (lCons$a ?v2 ?v0 )(finlsts$b ?v1 )))):named a16 ))
(assert (! (forall ((?v0 A_llist$ )(?v1 A_set$ )(?v2 A$ ))(=> (and (member$b ?v0 (finlsts$ ?v1 ))(member$c ?v2 ?v1 ))(member$b (lCons$ ?v2 ?v0 )(finlsts$ ?v1 )))):named a17 ))
(assert (! (forall ((?v0 A_llist_llist_llist_llist$ )(?v1 A_llist_llist_llist_set$ ))(= (member$d ?v0 (finlsts$c ?v1 ))(or (= ?v0 lNil$c )(exists ((?v2 A_llist_llist_llist_llist$ )(?v3 A_llist_llist_llist$ ))(and (= ?v0 (lCons$c ?v3 ?v2 ))(and (member$d ?v2 (finlsts$c ?v1 ))(member$ ?v3 ?v1 ))))))):named a18 ))
(assert (! (forall ((?v0 A_llist_llist_llist$ )(?v1 A_llist_llist_set$ ))(= (member$ ?v0 (finlsts$a ?v1 ))(or (= ?v0 lNil$b )(exists ((?v2 A_llist_llist_llist$ )(?v3 A_llist_llist$ ))(and (= ?v0 (lCons$b ?v3 ?v2 ))(and (member$ ?v2 (finlsts$a ?v1 ))(member$a ?v3 ?v1 ))))))):named a19 ))
(assert (! (forall ((?v0 A_llist_llist$ )(?v1 A_llist_set$ ))(= (member$a ?v0 (finlsts$b ?v1 ))(or (= ?v0 lNil$a )(exists ((?v2 A_llist_llist$ )(?v3 A_llist$ ))(and (= ?v0 (lCons$a ?v3 ?v2 ))(and (member$a ?v2 (finlsts$b ?v1 ))(member$b ?v3 ?v1 ))))))):named a20 ))
(assert (! (forall ((?v0 A_llist$ )(?v1 A_set$ ))(= (member$b ?v0 (finlsts$ ?v1 ))(or (= ?v0 lNil$ )(exists ((?v2 A_llist$ )(?v3 A$ ))(and (= ?v0 (lCons$ ?v3 ?v2 ))(and (member$b ?v2 (finlsts$ ?v1 ))(member$c ?v3 ?v1 ))))))):named a21 ))
(assert (! (forall ((?v0 A_llist_llist_llist_llist$ )(?v1 A_llist_llist_llist_set$ ))(=> (and (member$d ?v0 (finlsts$c ?v1 ))(and (=> (= ?v0 lNil$c )false )(forall ((?v2 A_llist_llist_llist_llist$ )(?v3 A_llist_llist_llist$ ))(=> (and (= ?v0 (lCons$c ?v3 ?v2 ))(and (member$d ?v2 (finlsts$c ?v1 ))(member$ ?v3 ?v1 )))false ))))false )):named a22 ))
(assert (! (forall ((?v0 A_llist_llist_llist$ )(?v1 A_llist_llist_set$ ))(=> (and (member$ ?v0 (finlsts$a ?v1 ))(and (=> (= ?v0 lNil$b )false )(forall ((?v2 A_llist_llist_llist$ )(?v3 A_llist_llist$ ))(=> (and (= ?v0 (lCons$b ?v3 ?v2 ))(and (member$ ?v2 (finlsts$a ?v1 ))(member$a ?v3 ?v1 )))false ))))false )):named a23 ))
(assert (! (forall ((?v0 A_llist_llist$ )(?v1 A_llist_set$ ))(=> (and (member$a ?v0 (finlsts$b ?v1 ))(and (=> (= ?v0 lNil$a )false )(forall ((?v2 A_llist_llist$ )(?v3 A_llist$ ))(=> (and (= ?v0 (lCons$a ?v3 ?v2 ))(and (member$a ?v2 (finlsts$b ?v1 ))(member$b ?v3 ?v1 )))false ))))false )):named a24 ))
(assert (! (forall ((?v0 A_llist$ )(?v1 A_set$ ))(=> (and (member$b ?v0 (finlsts$ ?v1 ))(and (=> (= ?v0 lNil$ )false )(forall ((?v2 A_llist$ )(?v3 A$ ))(=> (and (= ?v0 (lCons$ ?v3 ?v2 ))(and (member$b ?v2 (finlsts$ ?v1 ))(member$c ?v3 ?v1 )))false ))))false )):named a25 ))
(assert (! (forall ((?v0 A_llist_llist_llist_llist$ )(?v1 A_llist_llist_llist_set$ )(?v2 A_llist_llist_llist_llist_bool_fun$ ))(=> (and (member$d ?v0 (finlsts$c ?v1 ))(and (forall ((?v3 A_llist_llist_llist_llist$ ))(=> (= ?v3 lNil$c )(fun_app$d ?v2 ?v3 )))(forall ((?v3 A_llist_llist_llist$ )(?v4 A_llist_llist_llist_llist$ ))(=> (and (member$d ?v4 (finlsts$c ?v1 ))(and (fun_app$d ?v2 ?v4 )(member$ ?v3 ?v1 )))(fun_app$d ?v2 (lCons$c ?v3 ?v4 ))))))(fun_app$d ?v2 ?v0 ))):named a26 ))
(assert (! (forall ((?v0 A_llist_llist_llist$ )(?v1 A_llist_llist_set$ )(?v2 A_llist_llist_llist_bool_fun$ ))(=> (and (member$ ?v0 (finlsts$a ?v1 ))(and (forall ((?v3 A_llist_llist_llist$ ))(=> (= ?v3 lNil$b )(fun_app$ ?v2 ?v3 )))(forall ((?v3 A_llist_llist$ )(?v4 A_llist_llist_llist$ ))(=> (and (member$ ?v4 (finlsts$a ?v1 ))(and (fun_app$ ?v2 ?v4 )(member$a ?v3 ?v1 )))(fun_app$ ?v2 (lCons$b ?v3 ?v4 ))))))(fun_app$ ?v2 ?v0 ))):named a27 ))
(assert (! (forall ((?v0 A_llist_llist$ )(?v1 A_llist_set$ )(?v2 A_llist_llist_bool_fun$ ))(=> (and (member$a ?v0 (finlsts$b ?v1 ))(and (forall ((?v3 A_llist_llist$ ))(=> (= ?v3 lNil$a )(fun_app$a ?v2 ?v3 )))(forall ((?v3 A_llist$ )(?v4 A_llist_llist$ ))(=> (and (member$a ?v4 (finlsts$b ?v1 ))(and (fun_app$a ?v2 ?v4 )(member$b ?v3 ?v1 )))(fun_app$a ?v2 (lCons$a ?v3 ?v4 ))))))(fun_app$a ?v2 ?v0 ))):named a28 ))
(assert (! (forall ((?v0 A_llist$ )(?v1 A_set$ )(?v2 A_llist_bool_fun$ ))(=> (and (member$b ?v0 (finlsts$ ?v1 ))(and (forall ((?v3 A_llist$ ))(=> (= ?v3 lNil$ )(fun_app$b ?v2 ?v3 )))(forall ((?v3 A$ )(?v4 A_llist$ ))(=> (and (member$b ?v4 (finlsts$ ?v1 ))(and (fun_app$b ?v2 ?v4 )(member$c ?v3 ?v1 )))(fun_app$b ?v2 (lCons$ ?v3 ?v4 ))))))(fun_app$b ?v2 ?v0 ))):named a29 ))
(assert (! (forall ((?v0 A_llist_llist_set$ ))(member$ lNil$b (alllsts$a ?v0 ))):named a30 ))
(assert (! (forall ((?v0 A_llist_set$ ))(member$a lNil$a (alllsts$b ?v0 ))):named a31 ))
(assert (! (forall ((?v0 A_set$ ))(member$b lNil$ (alllsts$ ?v0 ))):named a32 ))
(assert (! (forall ((?v0 A_llist_llist_set$ )(?v1 A_llist_llist_set$ ))(=> (less_eq$ ?v0 ?v1 )(less_eq$a (finlsts$a ?v0 )(finlsts$a ?v1 )))):named a33 ))
(assert (! (forall ((?v0 A_llist_set$ )(?v1 A_llist_set$ ))(=> (less_eq$b ?v0 ?v1 )(less_eq$ (finlsts$b ?v0 )(finlsts$b ?v1 )))):named a34 ))
(assert (! (forall ((?v0 A_set$ )(?v1 A_set$ ))(=> (less_eq$c ?v0 ?v1 )(less_eq$b (finlsts$ ?v0 )(finlsts$ ?v1 )))):named a35 ))
(assert (! (forall ((?v0 A_llist_llist_set$ ))(! (= (inflsts$ ?v0 )(minus$ (alllsts$a ?v0 )(finlsts$a top$ ))):pattern ((inflsts$ ?v0 )))):named a36 ))
(assert (! (forall ((?v0 A_llist_set$ ))(! (= (inflsts$a ?v0 )(minus$a (alllsts$b ?v0 )(finlsts$b top$a ))):pattern ((inflsts$a ?v0 )))):named a37 ))
(assert (! (forall ((?v0 A_set$ ))(! (= (inflsts$b ?v0 )(minus$b (alllsts$ ?v0 )(finlsts$ top$b ))):pattern ((inflsts$b ?v0 )))):named a38 ))
(assert (! (forall ((?v0 A_llist_llist_llist_set$ )(?v1 A_llist_llist_llist_llist$ ))(= (fun_app$d (finlstsp$ (uu$ ?v0 ))?v1 )(member$d ?v1 (finlsts$c ?v0 )))):named a39 ))
(assert (! (forall ((?v0 A_llist_llist_set$ )(?v1 A_llist_llist_llist$ ))(= (fun_app$ (finlstsp$a (uua$ ?v0 ))?v1 )(member$ ?v1 (finlsts$a ?v0 )))):named a40 ))
(assert (! (forall ((?v0 A_llist_set$ )(?v1 A_llist_llist$ ))(= (fun_app$a (finlstsp$b (uub$ ?v0 ))?v1 )(member$a ?v1 (finlsts$b ?v0 )))):named a41 ))
(assert (! (forall ((?v0 A_set$ )(?v1 A_llist$ ))(= (fun_app$b (finlstsp$c (uuc$ ?v0 ))?v1 )(member$b ?v1 (finlsts$ ?v0 )))):named a42 ))
(assert (! (forall ((?v0 A_llist_llist_llist$ ))(member$ ?v0 (alllsts$a top$ ))):named a43 ))
(assert (! (forall ((?v0 A_llist_llist$ ))(member$a ?v0 (alllsts$b top$a ))):named a44 ))
(assert (! (forall ((?v0 A_llist$ ))(member$b ?v0 (alllsts$ top$b ))):named a45 ))
(assert (! (forall ((?v0 A_llist_llist_llist$ )(?v1 A_llist_llist_llist_llist$ )(?v2 A_llist_llist_llist_set$ ))(= (member$d (lCons$c ?v0 ?v1 )(alllsts$c ?v2 ))(and (member$ ?v0 ?v2 )(member$d ?v1 (alllsts$c ?v2 ))))):named a46 ))
(assert (! (forall ((?v0 A_llist_llist$ )(?v1 A_llist_llist_llist$ )(?v2 A_llist_llist_set$ ))(= (member$ (lCons$b ?v0 ?v1 )(alllsts$a ?v2 ))(and (member$a ?v0 ?v2 )(member$ ?v1 (alllsts$a ?v2 ))))):named a47 ))
(assert (! (forall ((?v0 A_llist$ )(?v1 A_llist_llist$ )(?v2 A_llist_set$ ))(= (member$a (lCons$a ?v0 ?v1 )(alllsts$b ?v2 ))(and (member$b ?v0 ?v2 )(member$a ?v1 (alllsts$b ?v2 ))))):named a48 ))
(assert (! (forall ((?v0 A$ )(?v1 A_llist$ )(?v2 A_set$ ))(= (member$b (lCons$ ?v0 ?v1 )(alllsts$ ?v2 ))(and (member$c ?v0 ?v2 )(member$b ?v1 (alllsts$ ?v2 ))))):named a49 ))
(assert (! (forall ((?v0 A_llist_llist_llist_llist$ )(?v1 A_llist_llist_llist_set$ ))(= (member$d ?v0 (alllsts$c ?v1 ))(or (= ?v0 lNil$c )(exists ((?v2 A_llist_llist_llist_llist$ )(?v3 A_llist_llist_llist$ ))(and (= ?v0 (lCons$c ?v3 ?v2 ))(and (member$d ?v2 (alllsts$c ?v1 ))(member$ ?v3 ?v1 ))))))):named a50 ))
(assert (! (forall ((?v0 A_llist_llist_llist$ )(?v1 A_llist_llist_set$ ))(= (member$ ?v0 (alllsts$a ?v1 ))(or (= ?v0 lNil$b )(exists ((?v2 A_llist_llist_llist$ )(?v3 A_llist_llist$ ))(and (= ?v0 (lCons$b ?v3 ?v2 ))(and (member$ ?v2 (alllsts$a ?v1 ))(member$a ?v3 ?v1 ))))))):named a51 ))
(assert (! (forall ((?v0 A_llist_llist$ )(?v1 A_llist_set$ ))(= (member$a ?v0 (alllsts$b ?v1 ))(or (= ?v0 lNil$a )(exists ((?v2 A_llist_llist$ )(?v3 A_llist$ ))(and (= ?v0 (lCons$a ?v3 ?v2 ))(and (member$a ?v2 (alllsts$b ?v1 ))(member$b ?v3 ?v1 ))))))):named a52 ))
(assert (! (forall ((?v0 A_llist$ )(?v1 A_set$ ))(= (member$b ?v0 (alllsts$ ?v1 ))(or (= ?v0 lNil$ )(exists ((?v2 A_llist$ )(?v3 A$ ))(and (= ?v0 (lCons$ ?v3 ?v2 ))(and (member$b ?v2 (alllsts$ ?v1 ))(member$c ?v3 ?v1 ))))))):named a53 ))
(assert (! (forall ((?v0 A_llist_llist_bool_fun$ )(?v1 A_llist_llist_llist$ ))(= (fun_app$ (finlstsp$a ?v0 )?v1 )(or (= ?v1 lNil$b )(exists ((?v2 A_llist_llist_llist$ )(?v3 A_llist_llist$ ))(and (= ?v1 (lCons$b ?v3 ?v2 ))(and (fun_app$ (finlstsp$a ?v0 )?v2 )(fun_app$a ?v0 ?v3 ))))))):named a54 ))
(assert (! (forall ((?v0 A_llist_bool_fun$ )(?v1 A_llist_llist$ ))(= (fun_app$a (finlstsp$b ?v0 )?v1 )(or (= ?v1 lNil$a )(exists ((?v2 A_llist_llist$ )(?v3 A_llist$ ))(and (= ?v1 (lCons$a ?v3 ?v2 ))(and (fun_app$a (finlstsp$b ?v0 )?v2 )(fun_app$b ?v0 ?v3 ))))))):named a55 ))
(assert (! (forall ((?v0 A_bool_fun$ )(?v1 A_llist$ ))(= (fun_app$b (finlstsp$c ?v0 )?v1 )(or (= ?v1 lNil$ )(exists ((?v2 A_llist$ )(?v3 A$ ))(and (= ?v1 (lCons$ ?v3 ?v2 ))(and (fun_app$b (finlstsp$c ?v0 )?v2 )(fun_app$c ?v0 ?v3 ))))))):named a56 ))
(check-sat )
;(get-unsat-core )
